0 0
13 0
24 0
26 0
28 0
30 0
32 0
69 31
70 31
71 31
73 32
74 34
75 35
77 43
80 57
84 71
91 99
92 102
94 104
95 105
96 106
97 110
98 112
121 133
122 133
123 134
124 134
125 135
126 135
127 136
128 136
129 136
133 136
134 136
135 136
136 137
